min: c;

c = 3.98627014373966 * u4_t1_h1 + 3.25328767092482 * u4_t1_h2 + 3.59239488268495 * u4_t1_h3 + 3.19598769614139 * u4_t1_h4 + 3.19598769614139 * u4_t10_h4 + 3.8678320071914 * u4_t1_h5 + 3.8678320071914 * u4_t10_h5 + 4.24388049632588 * u4_t1_h6 + 4.24388049632588 * u4_t10_h6 + 4.21936487470149 * u4_t1_h7 + 4.21936487470149 * u4_t10_h7 + 5.34906140880607 * u4_t1_h8 + 5.34906140880607 * u4_t9_h8 + 5.34906140880607 * u4_t10_h8 + 4.65137630330035 * u4_t9_h9 + 4.65137630330035 * u4_t10_h9 + 5.55626101448051 * u4_t9_h10 + 5.55626101448051 * u4_t10_h10 + 3.77695304066274 * u4_t2_h11 + 3.77695304066274 * u4_t4_h11 + 3.77695304066274 * u4_t9_h11 + 3.77695304066274 * u4_t10_h11 + 5.92466369747881 * u4_t2_h12 + 5.92466369747881 * u4_t3_h12 + 5.92466369747881 * u4_t4_h12 + 5.92466369747881 * u4_t8_h12 + 5.92466369747881 * u4_t9_h12 + 5.92466369747881 * u4_t10_h12 + 4.78682354945947 * u4_t2_h13 + 4.78682354945947 * u4_t3_h13 + 4.78682354945947 * u4_t4_h13 + 4.78682354945947 * u4_t8_h13 + 4.78682354945947 * u4_t9_h13 + 5.8992840559455 * u4_t2_h14 + 5.8992840559455 * u4_t3_h14 + 5.8992840559455 * u4_t4_h14 + 5.8992840559455 * u4_t8_h14 + 5.8992840559455 * u4_t9_h14 + 5.80204259026185 * u4_t2_h15 + 5.80204259026185 * u4_t3_h15 + 5.80204259026185 * u4_t4_h15 + 5.80204259026185 * u4_t8_h15 + 5.80204259026185 * u4_t9_h15 + 5.43129750551455 * u4_t2_h16 + 5.43129750551455 * u4_t3_h16 + 5.43129750551455 * u4_t4_h16 + 5.43129750551455 * u4_t5_h16 + 5.43129750551455 * u4_t8_h16 + 5.43129750551455 * u4_t9_h16 + 6.67714147348737 * u4_t2_h17 + 6.67714147348737 * u4_t3_h17 + 6.67714147348737 * u4_t5_h17 + 6.67714147348737 * u4_t8_h17 + 6.67714147348737 * u4_t9_h17 + 6.55975357216248 * u4_t2_h18 + 6.55975357216248 * u4_t3_h18 + 6.55975357216248 * u4_t5_h18 + 6.55975357216248 * u4_t8_h18 + 6.55975357216248 * u4_t9_h18 + 5.18070464439409 * u4_t2_h19 + 5.18070464439409 * u4_t3_h19 + 5.18070464439409 * u4_t6_h19 + 5.18070464439409 * u4_t8_h19 + 5.18070464439409 * u4_t9_h19 + 5.21615442416733 * u4_t2_h20 + 5.21615442416733 * u4_t6_h20 + 5.21615442416733 * u4_t9_h20 + 4.80905452915644 * u4_t6_h21 + 5.6786259212335 * u4_t6_h22 + 5.6786259212335 * u4_t7_h22 + 5.86130658664545 * u4_t6_h23 + 5.86130658664545 * u4_t7_h23;
0 <= u4_t1_h1 <= 1;
0 <= u4_t1_h2 <= 1;
0 <= u4_t1_h3 <= 1;
0 <= u4_t1_h4 <= 1;
0 <= u4_t1_h5 <= 1;
0 <= u4_t1_h6 <= 1;
0 <= u4_t1_h7 <= 1;
0 <= u4_t1_h8 <= 1;
u4_t1_h1 + u4_t1_h2 + u4_t1_h3 + u4_t1_h4 + u4_t1_h5 + u4_t1_h6 + u4_t1_h7 + u4_t1_h8 = 1;
0 <= u4_t2_h11 <= 1;
0 <= u4_t2_h12 <= 1;
0 <= u4_t2_h13 <= 1;
0 <= u4_t2_h14 <= 1;
0 <= u4_t2_h15 <= 1;
0 <= u4_t2_h16 <= 1;
0 <= u4_t2_h17 <= 1;
0 <= u4_t2_h18 <= 1;
0 <= u4_t2_h19 <= 1;
0 <= u4_t2_h20 <= 1;
u4_t2_h11 + u4_t2_h12 + u4_t2_h13 + u4_t2_h14 + u4_t2_h15 + u4_t2_h16 + u4_t2_h17 + u4_t2_h18 + u4_t2_h19 + u4_t2_h20 = 2;
0 <= u4_t3_h12 <= 1;
0 <= u4_t3_h13 <= 1;
0 <= u4_t3_h14 <= 1;
0 <= u4_t3_h15 <= 1;
0 <= u4_t3_h16 <= 1;
0 <= u4_t3_h17 <= 1;
0 <= u4_t3_h18 <= 1;
0 <= u4_t3_h19 <= 1;
u4_t3_h12 + u4_t3_h13 + u4_t3_h14 + u4_t3_h15 + u4_t3_h16 + u4_t3_h17 + u4_t3_h18 + u4_t3_h19 = 3;
0 <= u4_t4_h11 <= 1;
0 <= u4_t4_h12 <= 1;
0 <= u4_t4_h13 <= 1;
0 <= u4_t4_h14 <= 1;
0 <= u4_t4_h15 <= 1;
0 <= u4_t4_h16 <= 1;
u4_t4_h11 + u4_t4_h12 + u4_t4_h13 + u4_t4_h14 + u4_t4_h15 + u4_t4_h16 = 3;
0 <= u4_t5_h16 <= 1;
0 <= u4_t5_h17 <= 1;
0 <= u4_t5_h18 <= 1;
u4_t5_h16 + u4_t5_h17 + u4_t5_h18 = 1;
0 <= u4_t6_h19 <= 1;
0 <= u4_t6_h20 <= 1;
0 <= u4_t6_h21 <= 1;
0 <= u4_t6_h22 <= 1;
0 <= u4_t6_h23 <= 1;
u4_t6_h19 + u4_t6_h20 + u4_t6_h21 + u4_t6_h22 + u4_t6_h23 = 3;
0 <= u4_t7_h22 <= 1;
0 <= u4_t7_h23 <= 1;
u4_t7_h22 + u4_t7_h23 = 1;
0 <= u4_t8_h12 <= 1;
0 <= u4_t8_h13 <= 1;
0 <= u4_t8_h14 <= 1;
0 <= u4_t8_h15 <= 1;
0 <= u4_t8_h16 <= 1;
0 <= u4_t8_h17 <= 1;
0 <= u4_t8_h18 <= 1;
0 <= u4_t8_h19 <= 1;
u4_t8_h12 + u4_t8_h13 + u4_t8_h14 + u4_t8_h15 + u4_t8_h16 + u4_t8_h17 + u4_t8_h18 + u4_t8_h19 = 2;
0 <= u4_t9_h8 <= 1;
0 <= u4_t9_h9 <= 1;
0 <= u4_t9_h10 <= 1;
0 <= u4_t9_h11 <= 1;
0 <= u4_t9_h12 <= 1;
0 <= u4_t9_h13 <= 1;
0 <= u4_t9_h14 <= 1;
0 <= u4_t9_h15 <= 1;
0 <= u4_t9_h16 <= 1;
0 <= u4_t9_h17 <= 1;
0 <= u4_t9_h18 <= 1;
0 <= u4_t9_h19 <= 1;
0 <= u4_t9_h20 <= 1;
u4_t9_h8 + u4_t9_h9 + u4_t9_h10 + u4_t9_h11 + u4_t9_h12 + u4_t9_h13 + u4_t9_h14 + u4_t9_h15 + u4_t9_h16 + u4_t9_h17 + u4_t9_h18 + u4_t9_h19 + u4_t9_h20 = 2;
0 <= u4_t10_h4 <= 1;
0 <= u4_t10_h5 <= 1;
0 <= u4_t10_h6 <= 1;
0 <= u4_t10_h7 <= 1;
0 <= u4_t10_h8 <= 1;
0 <= u4_t10_h9 <= 1;
0 <= u4_t10_h10 <= 1;
0 <= u4_t10_h11 <= 1;
0 <= u4_t10_h12 <= 1;
u4_t10_h4 + u4_t10_h5 + u4_t10_h6 + u4_t10_h7 + u4_t10_h8 + u4_t10_h9 + u4_t10_h10 + u4_t10_h11 + u4_t10_h12 = 2;
